c book.min
c
p min 7 480
c
n 1 100
n 6 50
n 7 -150
c
a 1 2 0 8 5
a 1 2 0 8 10
a 1 2 0 8 15
a 1 2 0 8 20
a 1 2 0 8 25
a 1 2 0 8 30
a 1 2 0 8 35
a 1 2 0 8 40
a 1 2 0 8 45
a 1 2 0 8 50
a 1 2 0 8 55
a 1 2 0 8 60
a 1 2 0 8 65
a 1 2 0 8 70
a 1 2 0 8 75
a 1 2 0 8 80
a 1 2 0 8 85
a 1 2 0 8 90
a 1 2 0 8 95
a 1 2 0 8 100
a 2 1 0 8 5
a 2 1 0 8 10
a 2 1 0 8 15
a 2 1 0 8 20
a 2 1 0 8 25
a 2 1 0 8 30
a 2 1 0 8 35
a 2 1 0 8 40
a 2 1 0 8 45
a 2 1 0 8 50
a 2 1 0 8 55
a 2 1 0 8 60
a 2 1 0 8 65
a 2 1 0 8 70
a 2 1 0 8 75
a 2 1 0 8 80
a 2 1 0 8 85
a 2 1 0 8 90
a 2 1 0 8 95
a 2 1 0 8 100
c
a 1 3 0 8 5
a 1 3 0 8 10
a 1 3 0 8 15
a 1 3 0 8 20
a 1 3 0 8 25
a 1 3 0 8 30
a 1 3 0 8 35
a 1 3 0 8 40
a 1 3 0 8 45
a 1 3 0 8 50
a 1 3 0 8 55
a 1 3 0 8 60
a 1 3 0 8 65
a 1 3 0 8 70
a 1 3 0 8 75
a 1 3 0 8 80
a 1 3 0 8 85
a 1 3 0 8 90
a 1 3 0 8 95
a 1 3 0 8 100
a 3 1 0 8 5
a 3 1 0 8 10
a 3 1 0 8 15
a 3 1 0 8 20
a 3 1 0 8 25
a 3 1 0 8 30
a 3 1 0 8 35
a 3 1 0 8 40
a 3 1 0 8 45
a 3 1 0 8 50
a 3 1 0 8 55
a 3 1 0 8 60
a 3 1 0 8 65
a 3 1 0 8 70
a 3 1 0 8 75
a 3 1 0 8 80
a 3 1 0 8 85
a 3 1 0 8 90
a 3 1 0 8 95
a 3 1 0 8 100
c
a 2 3 0 8 5
a 2 3 0 8 10
a 2 3 0 8 15
a 2 3 0 8 20
a 2 3 0 8 25
a 2 3 0 8 30
a 2 3 0 8 35
a 2 3 0 8 40
a 2 3 0 8 45
a 2 3 0 8 50
a 2 3 0 8 55
a 2 3 0 8 60
a 2 3 0 8 65
a 2 3 0 8 70
a 2 3 0 8 75
a 2 3 0 8 80
a 2 3 0 8 85
a 2 3 0 8 90
a 2 3 0 8 95
a 2 3 0 8 100
a 3 2 0 8 5
a 3 2 0 8 10
a 3 2 0 8 15
a 3 2 0 8 20
a 3 2 0 8 25
a 3 2 0 8 30
a 3 2 0 8 35
a 3 2 0 8 40
a 3 2 0 8 45
a 3 2 0 8 50
a 3 2 0 8 55
a 3 2 0 8 60
a 3 2 0 8 65
a 3 2 0 8 70
a 3 2 0 8 75
a 3 2 0 8 80
a 3 2 0 8 85
a 3 2 0 8 90
a 3 2 0 8 95
a 3 2 0 8 100
c
a 2 4 0 8 5
a 2 4 0 8 10
a 2 4 0 8 15
a 2 4 0 8 20
a 2 4 0 8 25
a 2 4 0 8 30
a 2 4 0 8 35
a 2 4 0 8 40
a 2 4 0 8 45
a 2 4 0 8 50
a 2 4 0 8 55
a 2 4 0 8 60
a 2 4 0 8 65
a 2 4 0 8 70
a 2 4 0 8 75
a 2 4 0 8 80
a 2 4 0 8 85
a 2 4 0 8 90
a 2 4 0 8 95
a 2 4 0 8 100
a 4 2 0 8 5
a 4 2 0 8 10
a 4 2 0 8 15
a 4 2 0 8 20
a 4 2 0 8 25
a 4 2 0 8 30
a 4 2 0 8 35
a 4 2 0 8 40
a 4 2 0 8 45
a 4 2 0 8 50
a 4 2 0 8 55
a 4 2 0 8 60
a 4 2 0 8 65
a 4 2 0 8 70
a 4 2 0 8 75
a 4 2 0 8 80
a 4 2 0 8 85
a 4 2 0 8 90
a 4 2 0 8 95
a 4 2 0 8 100
c
a 2 7 0 8 5
a 2 7 0 8 10
a 2 7 0 8 15
a 2 7 0 8 20
a 2 7 0 8 25
a 2 7 0 8 30
a 2 7 0 8 35
a 2 7 0 8 40
a 2 7 0 8 45
a 2 7 0 8 50
a 2 7 0 8 55
a 2 7 0 8 60
a 2 7 0 8 65
a 2 7 0 8 70
a 2 7 0 8 75
a 2 7 0 8 80
a 2 7 0 8 85
a 2 7 0 8 90
a 2 7 0 8 95
a 2 7 0 8 100
a 7 2 0 8 5
a 7 2 0 8 10
a 7 2 0 8 15
a 7 2 0 8 20
a 7 2 0 8 25
a 7 2 0 8 30
a 7 2 0 8 35
a 7 2 0 8 40
a 7 2 0 8 45
a 7 2 0 8 50
a 7 2 0 8 55
a 7 2 0 8 60
a 7 2 0 8 65
a 7 2 0 8 70
a 7 2 0 8 75
a 7 2 0 8 80
a 7 2 0 8 85
a 7 2 0 8 90
a 7 2 0 8 95
a 7 2 0 8 100
c
a 3 5 0 8 5
a 3 5 0 8 10
a 3 5 0 8 15
a 3 5 0 8 20
a 3 5 0 8 25
a 3 5 0 8 30
a 3 5 0 8 35
a 3 5 0 8 40
a 3 5 0 8 45
a 3 5 0 8 50
a 3 5 0 8 55
a 3 5 0 8 60
a 3 5 0 8 65
a 3 5 0 8 70
a 3 5 0 8 75
a 3 5 0 8 80
a 3 5 0 8 85
a 3 5 0 8 90
a 3 5 0 8 95
a 3 5 0 8 100
a 5 3 0 8 5
a 5 3 0 8 10
a 5 3 0 8 15
a 5 3 0 8 20
a 5 3 0 8 25
a 5 3 0 8 30
a 5 3 0 8 35
a 5 3 0 8 40
a 5 3 0 8 45
a 5 3 0 8 50
a 5 3 0 8 55
a 5 3 0 8 60
a 5 3 0 8 65
a 5 3 0 8 70
a 5 3 0 8 75
a 5 3 0 8 80
a 5 3 0 8 85
a 5 3 0 8 90
a 5 3 0 8 95
a 5 3 0 8 100
c
a 3 7 0 8 5
a 3 7 0 8 10
a 3 7 0 8 15
a 3 7 0 8 20
a 3 7 0 8 25
a 3 7 0 8 30
a 3 7 0 8 35
a 3 7 0 8 40
a 3 7 0 8 45
a 3 7 0 8 50
a 3 7 0 8 55
a 3 7 0 8 60
a 3 7 0 8 65
a 3 7 0 8 70
a 3 7 0 8 75
a 3 7 0 8 80
a 3 7 0 8 85
a 3 7 0 8 90
a 3 7 0 8 95
a 3 7 0 8 100
a 7 3 0 8 5
a 7 3 0 8 10
a 7 3 0 8 15
a 7 3 0 8 20
a 7 3 0 8 25
a 7 3 0 8 30
a 7 3 0 8 35
a 7 3 0 8 40
a 7 3 0 8 45
a 7 3 0 8 50
a 7 3 0 8 55
a 7 3 0 8 60
a 7 3 0 8 65
a 7 3 0 8 70
a 7 3 0 8 75
a 7 3 0 8 80
a 7 3 0 8 85
a 7 3 0 8 90
a 7 3 0 8 95
a 7 3 0 8 100
c
a 4 5 0 8 5
a 4 5 0 8 10
a 4 5 0 8 15
a 4 5 0 8 20
a 4 5 0 8 25
a 4 5 0 8 30
a 4 5 0 8 35
a 4 5 0 8 40
a 4 5 0 8 45
a 4 5 0 8 50
a 4 5 0 8 55
a 4 5 0 8 60
a 4 5 0 8 65
a 4 5 0 8 70
a 4 5 0 8 75
a 4 5 0 8 80
a 4 5 0 8 85
a 4 5 0 8 90
a 4 5 0 8 95
a 4 5 0 8 100
a 5 4 0 8 5
a 5 4 0 8 10
a 5 4 0 8 15
a 5 4 0 8 20
a 5 4 0 8 25
a 5 4 0 8 30
a 5 4 0 8 35
a 5 4 0 8 40
a 5 4 0 8 45
a 5 4 0 8 50
a 5 4 0 8 55
a 5 4 0 8 60
a 5 4 0 8 65
a 5 4 0 8 70
a 5 4 0 8 75
a 5 4 0 8 80
a 5 4 0 8 85
a 5 4 0 8 90
a 5 4 0 8 95
a 5 4 0 8 100
c
a 4 6 0 8 5
a 4 6 0 8 10
a 4 6 0 8 15
a 4 6 0 8 20
a 4 6 0 8 25
a 4 6 0 8 30
a 4 6 0 8 35
a 4 6 0 8 40
a 4 6 0 8 45
a 4 6 0 8 50
a 4 6 0 8 55
a 4 6 0 8 60
a 4 6 0 8 65
a 4 6 0 8 70
a 4 6 0 8 75
a 4 6 0 8 80
a 4 6 0 8 85
a 4 6 0 8 90
a 4 6 0 8 95
a 4 6 0 8 100
a 6 4 0 8 5
a 6 4 0 8 10
a 6 4 0 8 15
a 6 4 0 8 20
a 6 4 0 8 25
a 6 4 0 8 30
a 6 4 0 8 35
a 6 4 0 8 40
a 6 4 0 8 45
a 6 4 0 8 50
a 6 4 0 8 55
a 6 4 0 8 60
a 6 4 0 8 65
a 6 4 0 8 70
a 6 4 0 8 75
a 6 4 0 8 80
a 6 4 0 8 85
a 6 4 0 8 90
a 6 4 0 8 95
a 6 4 0 8 100
c
a 4 7 0 8 5
a 4 7 0 8 10
a 4 7 0 8 15
a 4 7 0 8 20
a 4 7 0 8 25
a 4 7 0 8 30
a 4 7 0 8 35
a 4 7 0 8 40
a 4 7 0 8 45
a 4 7 0 8 50
a 4 7 0 8 55
a 4 7 0 8 60
a 4 7 0 8 65
a 4 7 0 8 70
a 4 7 0 8 75
a 4 7 0 8 80
a 4 7 0 8 85
a 4 7 0 8 90
a 4 7 0 8 95
a 4 7 0 8 100
a 7 4 0 8 5
a 7 4 0 8 10
a 7 4 0 8 15
a 7 4 0 8 20
a 7 4 0 8 25
a 7 4 0 8 30
a 7 4 0 8 35
a 7 4 0 8 40
a 7 4 0 8 45
a 7 4 0 8 50
a 7 4 0 8 55
a 7 4 0 8 60
a 7 4 0 8 65
a 7 4 0 8 70
a 7 4 0 8 75
a 7 4 0 8 80
a 7 4 0 8 85
a 7 4 0 8 90
a 7 4 0 8 95
a 7 4 0 8 100
c
a 5 6 0 8 5
a 5 6 0 8 10
a 5 6 0 8 15
a 5 6 0 8 20
a 5 6 0 8 25
a 5 6 0 8 30
a 5 6 0 8 35
a 5 6 0 8 40
a 5 6 0 8 45
a 5 6 0 8 50
a 5 6 0 8 55
a 5 6 0 8 60
a 5 6 0 8 65
a 5 6 0 8 70
a 5 6 0 8 75
a 5 6 0 8 80
a 5 6 0 8 85
a 5 6 0 8 90
a 5 6 0 8 95
a 5 6 0 8 100
a 6 5 0 8 5
a 6 5 0 8 10
a 6 5 0 8 15
a 6 5 0 8 20
a 6 5 0 8 25
a 6 5 0 8 30
a 6 5 0 8 35
a 6 5 0 8 40
a 6 5 0 8 45
a 6 5 0 8 50
a 6 5 0 8 55
a 6 5 0 8 60
a 6 5 0 8 65
a 6 5 0 8 70
a 6 5 0 8 75
a 6 5 0 8 80
a 6 5 0 8 85
a 6 5 0 8 90
a 6 5 0 8 95
a 6 5 0 8 100
c
a 5 7 0 8 5
a 5 7 0 8 10
a 5 7 0 8 15
a 5 7 0 8 20
a 5 7 0 8 25
a 5 7 0 8 30
a 5 7 0 8 35
a 5 7 0 8 40
a 5 7 0 8 45
a 5 7 0 8 50
a 5 7 0 8 55
a 5 7 0 8 60
a 5 7 0 8 65
a 5 7 0 8 70
a 5 7 0 8 75
a 5 7 0 8 80
a 5 7 0 8 85
a 5 7 0 8 90
a 5 7 0 8 95
a 5 7 0 8 100
a 7 5 0 8 5
a 7 5 0 8 10
a 7 5 0 8 15
a 7 5 0 8 20
a 7 5 0 8 25
a 7 5 0 8 30
a 7 5 0 8 35
a 7 5 0 8 40
a 7 5 0 8 45
a 7 5 0 8 50
a 7 5 0 8 55
a 7 5 0 8 60
a 7 5 0 8 65
a 7 5 0 8 70
a 7 5 0 8 75
a 7 5 0 8 80
a 7 5 0 8 85
a 7 5 0 8 90
a 7 5 0 8 95
a 7 5 0 8 100
c
c eof
